
Gurobi 8.1.1 (mac64, Python) logging started Tue Jul 14 17:43:50 2020

Academic license - for non-commercial use only

Gurobi 8.1.1 (mac64, Python) logging started Tue Jul 14 17:49:22 2020

Academic license - for non-commercial use only
